c numero: 52
c nombre: n-45-d-0.5
c densidad: 0.5
p edges 45 489
e 1 4
e 1 8
e 1 9
e 1 10
e 1 11
e 1 13
e 1 14
e 1 15
e 1 18
e 1 19
e 1 20
e 1 21
e 1 22
e 1 23
e 1 25
e 1 26
e 1 29
e 1 30
e 1 33
e 1 35
e 1 36
e 1 37
e 1 39
e 1 40
e 1 41
e 1 42
e 1 43
e 2 3
e 2 4
e 2 6
e 2 7
e 2 11
e 2 12
e 2 13
e 2 14
e 2 18
e 2 22
e 2 26
e 2 27
e 2 28
e 2 31
e 2 32
e 2 33
e 2 36
e 2 37
e 2 38
e 2 42
e 2 43
e 2 44
e 3 4
e 3 6
e 3 10
e 3 12
e 3 13
e 3 16
e 3 18
e 3 19
e 3 20
e 3 24
e 3 27
e 3 30
e 3 33
e 3 34
e 3 36
e 3 37
e 3 38
e 3 40
e 3 45
e 4 5
e 4 6
e 4 7
e 4 9
e 4 11
e 4 12
e 4 13
e 4 16
e 4 18
e 4 21
e 4 24
e 4 26
e 4 32
e 4 33
e 4 34
e 4 40
e 4 41
e 4 42
e 4 43
e 5 6
e 5 9
e 5 11
e 5 13
e 5 14
e 5 17
e 5 20
e 5 21
e 5 22
e 5 23
e 5 27
e 5 28
e 5 30
e 5 31
e 5 32
e 5 36
e 5 39
e 6 7
e 6 9
e 6 12
e 6 13
e 6 14
e 6 18
e 6 19
e 6 20
e 6 21
e 6 24
e 6 25
e 6 26
e 6 27
e 6 30
e 6 34
e 6 35
e 6 37
e 6 40
e 6 42
e 6 44
e 7 8
e 7 12
e 7 17
e 7 21
e 7 25
e 7 27
e 7 29
e 7 30
e 7 33
e 7 34
e 7 35
e 7 37
e 7 39
e 7 40
e 7 41
e 7 43
e 7 44
e 8 9
e 8 11
e 8 15
e 8 16
e 8 18
e 8 20
e 8 21
e 8 22
e 8 24
e 8 28
e 8 29
e 8 32
e 8 37
e 8 39
e 8 40
e 8 43
e 8 44
e 8 45
e 9 12
e 9 14
e 9 16
e 9 18
e 9 19
e 9 21
e 9 22
e 9 24
e 9 26
e 9 27
e 9 29
e 9 31
e 9 32
e 9 36
e 9 38
e 9 41
e 9 42
e 9 43
e 10 12
e 10 13
e 10 14
e 10 17
e 10 23
e 10 24
e 10 26
e 10 28
e 10 31
e 10 32
e 10 33
e 10 35
e 10 36
e 10 38
e 10 39
e 10 41
e 10 42
e 10 45
e 11 12
e 11 13
e 11 16
e 11 18
e 11 24
e 11 25
e 11 31
e 11 32
e 11 33
e 11 35
e 11 36
e 11 37
e 11 39
e 11 41
e 11 43
e 12 13
e 12 15
e 12 18
e 12 19
e 12 21
e 12 22
e 12 25
e 12 26
e 12 28
e 12 31
e 12 32
e 12 33
e 12 37
e 12 39
e 12 40
e 12 45
e 13 14
e 13 15
e 13 16
e 13 17
e 13 18
e 13 20
e 13 23
e 13 24
e 13 25
e 13 34
e 13 39
e 13 43
e 13 44
e 13 45
e 14 16
e 14 17
e 14 24
e 14 28
e 14 29
e 14 31
e 14 32
e 14 33
e 14 34
e 14 36
e 14 37
e 14 39
e 14 40
e 14 41
e 14 42
e 14 43
e 14 45
e 15 21
e 15 23
e 15 29
e 15 31
e 15 32
e 15 35
e 15 39
e 15 40
e 15 44
e 15 45
e 16 17
e 16 18
e 16 19
e 16 21
e 16 22
e 16 24
e 16 28
e 16 29
e 16 32
e 16 36
e 16 37
e 16 39
e 16 41
e 16 42
e 16 45
e 17 18
e 17 19
e 17 20
e 17 21
e 17 28
e 17 32
e 17 33
e 17 35
e 17 37
e 17 38
e 17 39
e 17 40
e 17 41
e 17 42
e 17 43
e 17 44
e 18 19
e 18 20
e 18 22
e 18 23
e 18 24
e 18 26
e 18 29
e 18 31
e 18 38
e 18 39
e 18 41
e 18 44
e 19 20
e 19 23
e 19 26
e 19 27
e 19 28
e 19 29
e 19 32
e 19 33
e 19 35
e 19 37
e 19 39
e 19 41
e 19 42
e 19 45
e 20 23
e 20 24
e 20 25
e 20 26
e 20 28
e 20 30
e 20 31
e 20 33
e 20 35
e 20 36
e 20 37
e 20 38
e 20 41
e 20 42
e 21 22
e 21 23
e 21 25
e 21 26
e 21 27
e 21 30
e 21 31
e 21 32
e 21 35
e 21 36
e 21 37
e 21 39
e 21 40
e 21 42
e 21 45
e 22 23
e 22 26
e 22 28
e 22 30
e 22 33
e 22 36
e 22 38
e 22 39
e 22 43
e 22 44
e 23 24
e 23 25
e 23 26
e 23 32
e 23 33
e 23 38
e 23 41
e 23 42
e 23 44
e 23 45
e 24 26
e 24 27
e 24 28
e 24 29
e 24 30
e 24 33
e 24 34
e 24 35
e 24 36
e 24 39
e 24 40
e 24 44
e 24 45
e 25 27
e 25 30
e 25 34
e 25 36
e 25 38
e 25 40
e 25 41
e 25 44
e 26 27
e 26 29
e 26 31
e 26 38
e 26 39
e 26 40
e 26 41
e 26 42
e 26 43
e 27 30
e 27 31
e 27 32
e 27 33
e 27 37
e 27 39
e 27 44
e 28 29
e 28 31
e 28 32
e 28 35
e 28 36
e 28 40
e 28 42
e 28 43
e 29 30
e 29 32
e 29 34
e 29 38
e 29 40
e 29 45
e 30 32
e 30 33
e 30 35
e 30 36
e 30 37
e 30 38
e 30 44
e 30 45
e 31 32
e 31 33
e 31 37
e 31 39
e 31 40
e 31 41
e 31 42
e 31 43
e 31 44
e 31 45
e 32 33
e 32 36
e 32 38
e 32 43
e 32 44
e 32 45
e 33 34
e 33 35
e 33 38
e 33 39
e 33 40
e 33 41
e 33 44
e 33 45
e 34 38
e 34 41
e 34 42
e 34 44
e 35 36
e 35 40
e 35 41
e 35 42
e 35 44
e 35 45
e 36 38
e 36 41
e 36 42
e 36 44
e 36 45
e 37 39
e 37 42
e 37 44
e 37 45
e 38 39
e 38 40
e 38 41
e 38 43
e 38 44
e 38 45
e 39 43
e 39 44
e 40 44
e 41 42
e 41 43
e 41 44
e 41 45
e 42 44
